p cnf 57 170
3 1 0
3 -2 0
-1 2 -3 0
4 5 -6 0
-4 -5 -6 0
4 -5 6 0
-4 5 6 0
7 -6 0
7 -2 0
6 2 -7 0
9 8 0
9 2 0
-8 -2 -9 0
-10 9 0
-10 6 0
-9 -6 10 0
11 2 0
11 10 0
-2 -10 -11 0
13 -12 0
13 -4 0
12 4 -13 0
15 13 0
15 14 0
-13 -14 -15 0
18 -17 0
18 -2 0
17 2 -18 0
-19 -16 0
-19 -18 0
16 18 19 0
20 -15 0
20 19 0
15 -19 -20 0
-21 11 0
-21 -20 0
-11 20 21 0
-22 10 -23 0
22 -10 -23 0
-22 -10 23 0
22 10 23 0
-24 -9 0
-24 -23 0
9 23 24 0
21 -24 -25 0
-21 24 -25 0
21 24 25 0
-21 -24 25 0
7 -25 -26 0
-7 25 -26 0
7 25 26 0
-7 -25 26 0
27 3 0
27 26 0
-3 -26 -27 0
-6 15 -28 0
6 -15 -28 0
-6 -15 28 0
6 15 28 0
-29 12 0
-29 12 0
-12 29 0
8 29 -30 0
-8 -29 -30 0
8 -29 30 0
-8 29 30 0
31 -28 0
31 -30 0
28 30 -31 0
19 -32 -33 0
-19 32 -33 0
19 32 33 0
-19 -32 33 0
35 -22 0
35 -8 0
22 8 -35 0
35 -4 -36 0
-35 4 -36 0
35 4 36 0
-35 -4 36 0
-34 -36 -37 0
34 36 -37 0
-34 36 37 0
34 -36 37 0
38 37 0
38 8 0
-37 -8 -38 0
-9 -35 -40 0
9 35 -40 0
-9 35 40 0
9 -35 40 0
41 -39 0
41 -40 0
39 40 -41 0
-42 38 0
-42 -41 0
-38 41 42 0
43 33 0
43 42 0
-33 -42 -43 0
44 -17 0
44 36 0
17 -36 -44 0
-45 2 0
-45 34 0
-2 -34 45 0
46 44 0
46 -45 0
-44 45 -46 0
-43 -46 -47 0
43 46 -47 0
-43 46 47 0
43 -46 47 0
-48 31 0
-48 -47 0
-31 47 48 0
49 22 0
49 8 0
-22 -8 -49 0
-50 49 0
-50 -37 0
-49 37 50 0
-52 -50 0
-52 -51 0
50 51 52 0
-52 -49 -53 0
52 49 -53 0
-52 49 53 0
52 -49 53 0
54 -48 0
54 -53 0
48 53 -54 0
55 -4 0
55 -13 0
4 13 -55 0
56 54 0
56 55 0
-54 -55 -56 0
57 -27 0
57 -56 0
27 56 -57 0
-57 31 -2 0
-31 -33 0
-44 -24 49 6 -57 0
48 -31 2 -17 0
-35 53 17 36 20 39 0
-55 -11 -37 54 0
-34 -25 46 0
-17 -33 11 -12 0
53 -43 2 0
-56 -49 -51 9 -15 14 0
50 -13 32 0
-21 -18 -28 -36 -35 0
48 -33 15 -43 47 -4 0
55 -37 32 3 -45 -29 0
-56 -1 0
-28 -41 0
46 47 -51 -17 43 9 0
-37 -56 -53 0
-36 -57 -30 33 0
-47 44 0
-5 -33 25 0
-5 38 13 -30 44 0
48 43 50 0
33 -1 -11 13 0
-1 -32 -13 0
-54 14 0
33 36 -21 -34 0
55 -26 0
57 0
